row=9;
column=9;
Board = [|2, -1, 5, 4, -1, 3, -1, 1, 1|4, -1, 6, 5, 6, 5, 3, -1, -1|4, -1, 4, -1, 4, 4, 2, -1, 3|-1, 6, 3, 3, 2, 3, 3, -1, -1|2, 4, 3, -1, 1, 2, 4, -1, 4|1, 3, 3, 3, 1, 2, -1, -1, 3|2, -1, 4, 4, 3, -1, 3, -1, 3|3, -1, 3, 3, -1, 2, -1, -1, -1|3, 3, -1, -1, -1, 2, -1, 4, 4|]